N = 15;
D = 3;
N1= 3;
N2 = 4;
N3 = 3;
MaxDT = 4;
MaxDL = 3;
MinDT = 1;
A = 2;
C = 2;
categ = [1, 2, 1, 1, 1, 1, 1, 2, 1, 2, 1, 2, 1, 2, 1];
numcateg = [1, 2, 1];
afin = [| 0, 1, 1, 1, 0, 1, 1, 1, 1, 1, 1, 1, 1, 1, 1
        | 1, 0, 0, 1, 1, 1, 1, 1, 1, 1, 1, 0, 1, 1, 1
        | 1, 0, 0, 1, 0, 1, 1, 1, 1, 1, 1, 1, 1, 1, 1
        | 1, 1, 1, 0, 1, 1, 1, 0, 1, 1, 1, 1, 1, 1, 1
        | 0, 1, 0, 1, 0, 1, 1, 1, 1, 1, 1, 1, 1, 0, 1
        | 1, 1, 1, 1, 1, 0, 1, 1, 1, 1, 1, 0, 1, 1, 1
        | 1, 1, 1, 1, 1, 1, 0, 1, 1, 1, 1, 1, 1, 1, 1
        | 1, 1, 1, 0, 1, 1, 1, 0, 1, 1, 1, 0, 1, 1, 1
        | 1, 1, 1, 1, 1, 1, 1, 1, 0, 1, 1, 1, 1, 0, 1
        | 1, 1, 1, 1, 1, 1, 1, 1, 1, 0, 1, 1, 1, 1, 1
        | 1, 1, 1, 1, 1, 1, 1, 1, 1, 1, 0, 1, 1, 1, 1
        | 1, 0, 1, 1, 1, 0, 1, 0, 1, 1, 1, 0, 1, 1, 1
        | 1, 1, 1, 1, 1, 1, 1, 1, 1, 1, 1, 1, 0, 1, 1
        | 1, 1, 1, 1, 0, 1, 1, 1, 0, 1, 1, 1, 1, 0, 1
        | 1, 1, 1, 1, 1, 1, 1, 1, 1, 1, 1, 1, 1, 1, 0|];    
diasPedidos = [| 0, 1, 1
               | 0, 0, 1
               | 0, 0, 0
               | 0, 0, 0
               | 0, 0, 0
               | 1, 0, 0
               | 0, 0, 0
               | 0, 0,1
               | 0, 0, 0
               | 0, 1, 0
               | 0, 0, 0
               | 1, 0, 0
               | 0, 0, 0
               | 0, 0, 1
               | 0, 0, 0|];      
prefTurnos = [0, 2, 0, 0, 3, 0, 1, 0, 2, 0, 0, 1, 2, 3, 2];